proyfinal/src/viki/013/experimentInOfficeAgust.take6.output/dd01a41a-2048-4031-99ed-ab264ce6526f.als.dat
{'cnf.clauses': '118081',
 'cnf.totvars': '69608',
 'conflict literals': '29',
 'conflicts': '10',
 'decisions': '1599',
 'memused.mb': '16.17',
 'outcome': 'UNSAT',
 'propagations': '18968',
 'restarts': '1',
 'solver.msecs': 36,
 'task.msecs': 115}
