proyfinal/src/viki/013/experimentInOfficeAgust.take6.output/dd01a41a-2048-4031-99ed-ab264ce6526f.als.out
Reading from standard input... Use '--help' for help.
============================[ Problem Statistics ]=============================
|                                                                             |
|  Number of variables:         69608                                         |
|  Number of clauses:          118081                                         |
|  Parse time:                   0.03 s                                       |
|                                                                             |
============================[ Search Statistics ]==============================
| Conflicts |          ORIGINAL         |          LEARNT          | Progress |
|           |    Vars  Clauses Literals |    Limit  Clauses Lit/Cl |          |
===============================================================================
===============================================================================
restarts              : 1
conflicts             : 10             (274 /sec)
decisions             : 1599           (0.00 % random) (43779 /sec)
propagations          : 18968          (519330 /sec)
conflict literals     : 29             (0.00 % deleted)
Memory used           : 16.17 MB
CPU time              : 0.036524 s

UNSATISFIABLE
